data/lp_files/q3/70_4.lp
\ Model foo
\ LP format - for model browsing. Use MPS format to capture full model detail.
Minimize
  z
Subject To
 allocateEach[1]: x[1,1] + x[2,1] + x[3,1] + x[4,1] = 1
 allocateEach[2]: x[1,2] + x[2,2] + x[3,2] + x[4,2] = 1
 allocateEach[3]: x[1,3] + x[2,3] + x[3,3] + x[4,3] = 1
 allocateEach[4]: x[1,4] + x[2,4] + x[3,4] + x[4,4] = 1
 allocateEach[5]: x[1,5] + x[2,5] + x[3,5] + x[4,5] = 1
 allocateEach[6]: x[1,6] + x[2,6] + x[3,6] + x[4,6] = 1
 allocateEach[7]: x[1,7] + x[2,7] + x[3,7] + x[4,7] = 1
 allocateEach[8]: x[1,8] + x[2,8] + x[3,8] + x[4,8] = 1
 allocateEach[9]: x[1,9] + x[2,9] + x[3,9] + x[4,9] = 1
 allocateEach[10]: x[1,10] + x[2,10] + x[3,10] + x[4,10] = 1
 allocateAllCash: cashProportion[1] + cashProportion[2] + cashProportion[3]
   + cashProportion[4] = 1
 findWorstP[1,2]: z + 0.0375054382885518 cashProportion[1]
   - 0.0375054382885518 cashProportion[2] + 0.0166824189507479 x[1,1]
   + 0.1315090688149782 x[1,2] + 0.1344945017027469 x[1,3]
   + 0.1339694255667072 x[1,4] + 0.1087507688614849 x[1,5]
   + 0.1468112876367073 x[1,6] + 0.015047181841367 x[1,7]
   + 0.1365798040715904 x[1,8] + 0.00577583749643698 x[1,9]
   + 0.1328742667686814 x[1,10] - 0.0166824189507479 x[2,1]
   - 0.1315090688149782 x[2,2] - 0.1344945017027469 x[2,3]
   - 0.1339694255667072 x[2,4] - 0.1087507688614849 x[2,5]
   - 0.1468112876367073 x[2,6] - 0.015047181841367 x[2,7]
   - 0.1365798040715904 x[2,8] - 0.00577583749643698 x[2,9]
   - 0.1328742667686814 x[2,10] >= 0
 findWorstP[1,3]: z + 0.0375054382885518 cashProportion[1]
   - 0.0375054382885518 cashProportion[3] + 0.0166824189507479 x[1,1]
   + 0.1315090688149782 x[1,2] + 0.1344945017027469 x[1,3]
   + 0.1339694255667072 x[1,4] + 0.1087507688614849 x[1,5]
   + 0.1468112876367073 x[1,6] + 0.015047181841367 x[1,7]
   + 0.1365798040715904 x[1,8] + 0.00577583749643698 x[1,9]
   + 0.1328742667686814 x[1,10] - 0.0166824189507479 x[3,1]
   - 0.1315090688149782 x[3,2] - 0.1344945017027469 x[3,3]
   - 0.1339694255667072 x[3,4] - 0.1087507688614849 x[3,5]
   - 0.1468112876367073 x[3,6] - 0.015047181841367 x[3,7]
   - 0.1365798040715904 x[3,8] - 0.00577583749643698 x[3,9]
   - 0.1328742667686814 x[3,10] >= 0
 findWorstP[1,4]: z + 0.0375054382885518 cashProportion[1]
   - 0.0375054382885518 cashProportion[4] + 0.0166824189507479 x[1,1]
   + 0.1315090688149782 x[1,2] + 0.1344945017027469 x[1,3]
   + 0.1339694255667072 x[1,4] + 0.1087507688614849 x[1,5]
   + 0.1468112876367073 x[1,6] + 0.015047181841367 x[1,7]
   + 0.1365798040715904 x[1,8] + 0.00577583749643698 x[1,9]
   + 0.1328742667686814 x[1,10] - 0.0166824189507479 x[4,1]
   - 0.1315090688149782 x[4,2] - 0.1344945017027469 x[4,3]
   - 0.1339694255667072 x[4,4] - 0.1087507688614849 x[4,5]
   - 0.1468112876367073 x[4,6] - 0.015047181841367 x[4,7]
   - 0.1365798040715904 x[4,8] - 0.00577583749643698 x[4,9]
   - 0.1328742667686814 x[4,10] >= 0
 findWorstP[2,1]: z - 0.0415517069441213 cashProportion[1]
   + 0.0415517069441213 cashProportion[2] - 0.0375627430774856 x[1,1]
   - 0.1442176644616561 x[1,2] - 0.1501678688960542 x[1,3]
   - 0.0194461988498488 x[1,4] - 0.1617524847920752 x[1,5]
   - 0.1079679553236047 x[1,6] - 0.0346707442741748 x[1,7]
   - 0.1421068377488947 x[1,8] - 0.1165774690024266 x[1,9]
   - 0.0439783266296579 x[1,10] + 0.0375627430774856 x[2,1]
   + 0.1442176644616561 x[2,2] + 0.1501678688960542 x[2,3]
   + 0.0194461988498488 x[2,4] + 0.1617524847920752 x[2,5]
   + 0.1079679553236047 x[2,6] + 0.0346707442741748 x[2,7]
   + 0.1421068377488947 x[2,8] + 0.1165774690024266 x[2,9]
   + 0.0439783266296579 x[2,10] >= 0
 findWorstP[2,3]: z + 0.0415517069441213 cashProportion[2]
   - 0.0415517069441213 cashProportion[3] + 0.0375627430774856 x[2,1]
   + 0.1442176644616561 x[2,2] + 0.1501678688960542 x[2,3]
   + 0.0194461988498488 x[2,4] + 0.1617524847920752 x[2,5]
   + 0.1079679553236047 x[2,6] + 0.0346707442741748 x[2,7]
   + 0.1421068377488947 x[2,8] + 0.1165774690024266 x[2,9]
   + 0.0439783266296579 x[2,10] - 0.0375627430774856 x[3,1]
   - 0.1442176644616561 x[3,2] - 0.1501678688960542 x[3,3]
   - 0.0194461988498488 x[3,4] - 0.1617524847920752 x[3,5]
   - 0.1079679553236047 x[3,6] - 0.0346707442741748 x[3,7]
   - 0.1421068377488947 x[3,8] - 0.1165774690024266 x[3,9]
   - 0.0439783266296579 x[3,10] >= 0
 findWorstP[2,4]: z + 0.0415517069441213 cashProportion[2]
   - 0.0415517069441213 cashProportion[4] + 0.0375627430774856 x[2,1]
   + 0.1442176644616561 x[2,2] + 0.1501678688960542 x[2,3]
   + 0.0194461988498488 x[2,4] + 0.1617524847920752 x[2,5]
   + 0.1079679553236047 x[2,6] + 0.0346707442741748 x[2,7]
   + 0.1421068377488947 x[2,8] + 0.1165774690024266 x[2,9]
   + 0.0439783266296579 x[2,10] - 0.0375627430774856 x[4,1]
   - 0.1442176644616561 x[4,2] - 0.1501678688960542 x[4,3]
   - 0.0194461988498488 x[4,4] - 0.1617524847920752 x[4,5]
   - 0.1079679553236047 x[4,6] - 0.0346707442741748 x[4,7]
   - 0.1421068377488947 x[4,8] - 0.1165774690024266 x[4,9]
   - 0.0439783266296579 x[4,10] >= 0
 findWorstP[3,1]: z - 0.0638667484161047 cashProportion[1]
   + 0.0638667484161047 cashProportion[3] - 0.0871142448395668 x[1,1]
   - 0.0471336603310852 x[1,2] - 0.2387849989781321 x[1,3]
   - 0.071632945023503 x[1,4] - 0.1460249335785817 x[1,5]
   - 0.0445023502963417 x[1,6] - 0.1653126916002453 x[1,7]
   - 0.0395718373186184 x[1,8] - 0.0279480891068874 x[1,9]
   - 0.068107500510934 x[1,10] + 0.0871142448395668 x[3,1]
   + 0.0471336603310852 x[3,2] + 0.2387849989781321 x[3,3]
   + 0.071632945023503 x[3,4] + 0.1460249335785817 x[3,5]
   + 0.0445023502963417 x[3,6] + 0.1653126916002453 x[3,7]
   + 0.0395718373186184 x[3,8] + 0.0279480891068874 x[3,9]
   + 0.068107500510934 x[3,10] >= 0
 findWorstP[3,2]: z - 0.0638667484161047 cashProportion[2]
   + 0.0638667484161047 cashProportion[3] - 0.0871142448395668 x[2,1]
   - 0.0471336603310852 x[2,2] - 0.2387849989781321 x[2,3]
   - 0.071632945023503 x[2,4] - 0.1460249335785817 x[2,5]
   - 0.0445023502963417 x[2,6] - 0.1653126916002453 x[2,7]
   - 0.0395718373186184 x[2,8] - 0.0279480891068874 x[2,9]
   - 0.068107500510934 x[2,10] + 0.0871142448395668 x[3,1]
   + 0.0471336603310852 x[3,2] + 0.2387849989781321 x[3,3]
   + 0.071632945023503 x[3,4] + 0.1460249335785817 x[3,5]
   + 0.0445023502963417 x[3,6] + 0.1653126916002453 x[3,7]
   + 0.0395718373186184 x[3,8] + 0.0279480891068874 x[3,9]
   + 0.068107500510934 x[3,10] >= 0
 findWorstP[3,4]: z + 0.0638667484161047 cashProportion[3]
   - 0.0638667484161047 cashProportion[4] + 0.0871142448395668 x[3,1]
   + 0.0471336603310852 x[3,2] + 0.2387849989781321 x[3,3]
   + 0.071632945023503 x[3,4] + 0.1460249335785817 x[3,5]
   + 0.0445023502963417 x[3,6] + 0.1653126916002453 x[3,7]
   + 0.0395718373186184 x[3,8] + 0.0279480891068874 x[3,9]
   + 0.068107500510934 x[3,10] - 0.0871142448395668 x[4,1]
   - 0.0471336603310852 x[4,2] - 0.2387849989781321 x[4,3]
   - 0.071632945023503 x[4,4] - 0.1460249335785817 x[4,5]
   - 0.0445023502963417 x[4,6] - 0.1653126916002453 x[4,7]
   - 0.0395718373186184 x[4,8] - 0.0279480891068874 x[4,9]
   - 0.068107500510934 x[4,10] >= 0
 findWorstP[4,1]: z - 0.0524614932639443 cashProportion[1]
   + 0.0524614932639443 cashProportion[4] - 0.1856297477651404 x[1,1]
   - 0.00467956519914383 x[1,2] - 0.0782935325471104 x[1,3]
   - 0.0241322869014144 x[1,4] - 0.078314517144416 x[1,5]
   - 0.0757543962731355 x[1,6] - 0.1413312628530659 x[1,7]
   - 0.0802451 x[1,8] - 0.1621899525748101 x[1,9]
   - 0.1169681453812901 x[1,10] + 0.1856297477651404 x[4,1]
   + 0.00467956519914383 x[4,2] + 0.0782935325471104 x[4,3]
   + 0.0241322869014144 x[4,4] + 0.078314517144416 x[4,5]
   + 0.0757543962731355 x[4,6] + 0.1413312628530659 x[4,7]
   + 0.0802451 x[4,8] + 0.1621899525748101 x[4,9]
   + 0.1169681453812901 x[4,10] >= 0
 findWorstP[4,2]: z - 0.0524614932639443 cashProportion[2]
   + 0.0524614932639443 cashProportion[4] - 0.1856297477651404 x[2,1]
   - 0.00467956519914383 x[2,2] - 0.0782935325471104 x[2,3]
   - 0.0241322869014144 x[2,4] - 0.078314517144416 x[2,5]
   - 0.0757543962731355 x[2,6] - 0.1413312628530659 x[2,7]
   - 0.0802451 x[2,8] - 0.1621899525748101 x[2,9]
   - 0.1169681453812901 x[2,10] + 0.1856297477651404 x[4,1]
   + 0.00467956519914383 x[4,2] + 0.0782935325471104 x[4,3]
   + 0.0241322869014144 x[4,4] + 0.078314517144416 x[4,5]
   + 0.0757543962731355 x[4,6] + 0.1413312628530659 x[4,7]
   + 0.0802451 x[4,8] + 0.1621899525748101 x[4,9]
   + 0.1169681453812901 x[4,10] >= 0
 findWorstP[4,3]: z - 0.0524614932639443 cashProportion[3]
   + 0.0524614932639443 cashProportion[4] - 0.1856297477651404 x[3,1]
   - 0.00467956519914383 x[3,2] - 0.0782935325471104 x[3,3]
   - 0.0241322869014144 x[3,4] - 0.078314517144416 x[3,5]
   - 0.0757543962731355 x[3,6] - 0.1413312628530659 x[3,7]
   - 0.0802451 x[3,8] - 0.1621899525748101 x[3,9]
   - 0.1169681453812901 x[3,10] + 0.1856297477651404 x[4,1]
   + 0.00467956519914383 x[4,2] + 0.0782935325471104 x[4,3]
   + 0.0241322869014144 x[4,4] + 0.078314517144416 x[4,5]
   + 0.0757543962731355 x[4,6] + 0.1413312628530659 x[4,7]
   + 0.0802451 x[4,8] + 0.1621899525748101 x[4,9]
   + 0.1169681453812901 x[4,10] >= 0
Bounds
 z <= 1
 -infinity <= cashProportion[1] <= 1
 -infinity <= cashProportion[2] <= 1
 -infinity <= cashProportion[3] <= 1
 -infinity <= cashProportion[4] <= 1
Binaries
 x[1,1] x[1,2] x[1,3] x[1,4] x[1,5] x[1,6] x[1,7] x[1,8] x[1,9] x[1,10]
 x[2,1] x[2,2] x[2,3] x[2,4] x[2,5] x[2,6] x[2,7] x[2,8] x[2,9] x[2,10]
 x[3,1] x[3,2] x[3,3] x[3,4] x[3,5] x[3,6] x[3,7] x[3,8] x[3,9] x[3,10]
 x[4,1] x[4,2] x[4,3] x[4,4] x[4,5] x[4,6] x[4,7] x[4,8] x[4,9] x[4,10]
End
