data/mps_files/q3/70_4.mps
NAME foo
ROWS
 N  OBJ
 E  allocateEach[1]
 E  allocateEach[2]
 E  allocateEach[3]
 E  allocateEach[4]
 E  allocateEach[5]
 E  allocateEach[6]
 E  allocateEach[7]
 E  allocateEach[8]
 E  allocateEach[9]
 E  allocateEach[10]
 E  allocateAllCash
 G  findWorstP[1,2]
 G  findWorstP[1,3]
 G  findWorstP[1,4]
 G  findWorstP[2,1]
 G  findWorstP[2,3]
 G  findWorstP[2,4]
 G  findWorstP[3,1]
 G  findWorstP[3,2]
 G  findWorstP[3,4]
 G  findWorstP[4,1]
 G  findWorstP[4,2]
 G  findWorstP[4,3]
COLUMNS
    z         OBJ       1
    z         findWorstP[1,2]  1
    z         findWorstP[1,3]  1
    z         findWorstP[1,4]  1
    z         findWorstP[2,1]  1
    z         findWorstP[2,3]  1
    z         findWorstP[2,4]  1
    z         findWorstP[3,1]  1
    z         findWorstP[3,2]  1
    z         findWorstP[3,4]  1
    z         findWorstP[4,1]  1
    z         findWorstP[4,2]  1
    z         findWorstP[4,3]  1
    cashProportion[1]  allocateAllCash  1
    cashProportion[1]  findWorstP[1,2]  3.7505438288551837e-02
    cashProportion[1]  findWorstP[1,3]  3.7505438288551837e-02
    cashProportion[1]  findWorstP[1,4]  3.7505438288551837e-02
    cashProportion[1]  findWorstP[2,1]  -4.1551706944121261e-02
    cashProportion[1]  findWorstP[3,1]  -6.3866748416104652e-02
    cashProportion[1]  findWorstP[4,1]  -5.2461493263944267e-02
    cashProportion[2]  allocateAllCash  1
    cashProportion[2]  findWorstP[1,2]  -3.7505438288551837e-02
    cashProportion[2]  findWorstP[2,1]  4.1551706944121261e-02
    cashProportion[2]  findWorstP[2,3]  4.1551706944121261e-02
    cashProportion[2]  findWorstP[2,4]  4.1551706944121261e-02
    cashProportion[2]  findWorstP[3,2]  -6.3866748416104652e-02
    cashProportion[2]  findWorstP[4,2]  -5.2461493263944267e-02
    cashProportion[3]  allocateAllCash  1
    cashProportion[3]  findWorstP[1,3]  -3.7505438288551837e-02
    cashProportion[3]  findWorstP[2,3]  -4.1551706944121261e-02
    cashProportion[3]  findWorstP[3,1]  6.3866748416104652e-02
    cashProportion[3]  findWorstP[3,2]  6.3866748416104652e-02
    cashProportion[3]  findWorstP[3,4]  6.3866748416104652e-02
    cashProportion[3]  findWorstP[4,3]  -5.2461493263944267e-02
    cashProportion[4]  allocateAllCash  1
    cashProportion[4]  findWorstP[1,4]  -3.7505438288551837e-02
    cashProportion[4]  findWorstP[2,4]  -4.1551706944121261e-02
    cashProportion[4]  findWorstP[3,4]  -6.3866748416104652e-02
    cashProportion[4]  findWorstP[4,1]  5.2461493263944267e-02
    cashProportion[4]  findWorstP[4,2]  5.2461493263944267e-02
    cashProportion[4]  findWorstP[4,3]  5.2461493263944267e-02
    MARKER    'MARKER'                 'INTORG'
    x[1,1]    allocateEach[1]  1
    x[1,1]    findWorstP[1,2]  1.6682418950747856e-02
    x[1,1]    findWorstP[1,3]  1.6682418950747856e-02
    x[1,1]    findWorstP[1,4]  1.6682418950747856e-02
    x[1,1]    findWorstP[2,1]  -3.7562743077485618e-02
    x[1,1]    findWorstP[3,1]  -8.7114244839566757e-02
    x[1,1]    findWorstP[4,1]  -1.8562974776514041e-01
    x[1,2]    allocateEach[2]  1
    x[1,2]    findWorstP[1,2]  1.3150906881497818e-01
    x[1,2]    findWorstP[1,3]  1.3150906881497818e-01
    x[1,2]    findWorstP[1,4]  1.3150906881497818e-01
    x[1,2]    findWorstP[2,1]  -1.4421766446165607e-01
    x[1,2]    findWorstP[3,1]  -4.7133660331085230e-02
    x[1,2]    findWorstP[4,1]  -4.6795651991438283e-03
    x[1,3]    allocateEach[3]  1
    x[1,3]    findWorstP[1,2]  1.3449450170274688e-01
    x[1,3]    findWorstP[1,3]  1.3449450170274688e-01
    x[1,3]    findWorstP[1,4]  1.3449450170274688e-01
    x[1,3]    findWorstP[2,1]  -1.5016786889605424e-01
    x[1,3]    findWorstP[3,1]  -2.3878499897813207e-01
    x[1,3]    findWorstP[4,1]  -7.8293532547110425e-02
    x[1,4]    allocateEach[4]  1
    x[1,4]    findWorstP[1,2]  1.3396942556670716e-01
    x[1,4]    findWorstP[1,3]  1.3396942556670716e-01
    x[1,4]    findWorstP[1,4]  1.3396942556670716e-01
    x[1,4]    findWorstP[2,1]  -1.9446198849848752e-02
    x[1,4]    findWorstP[3,1]  -7.1632945023502967e-02
    x[1,4]    findWorstP[4,1]  -2.4132286901414363e-02
    x[1,5]    allocateEach[5]  1
    x[1,5]    findWorstP[1,2]  1.0875076886148491e-01
    x[1,5]    findWorstP[1,3]  1.0875076886148491e-01
    x[1,5]    findWorstP[1,4]  1.0875076886148491e-01
    x[1,5]    findWorstP[2,1]  -1.6175248479207524e-01
    x[1,5]    findWorstP[3,1]  -1.4602493357858168e-01
    x[1,5]    findWorstP[4,1]  -0.078314517144416
    x[1,6]    allocateEach[6]  1
    x[1,6]    findWorstP[1,2]  1.4681128763670731e-01
    x[1,6]    findWorstP[1,3]  1.4681128763670731e-01
    x[1,6]    findWorstP[1,4]  1.4681128763670731e-01
    x[1,6]    findWorstP[2,1]  -1.0796795532360468e-01
    x[1,6]    findWorstP[3,1]  -4.4502350296341718e-02
    x[1,6]    findWorstP[4,1]  -7.5754396273135516e-02
    x[1,7]    allocateEach[7]  1
    x[1,7]    findWorstP[1,2]  1.5047181841366997e-02
    x[1,7]    findWorstP[1,3]  1.5047181841366997e-02
    x[1,7]    findWorstP[1,4]  1.5047181841366997e-02
    x[1,7]    findWorstP[2,1]  -3.4670744274174783e-02
    x[1,7]    findWorstP[3,1]  -1.6531269160024528e-01
    x[1,7]    findWorstP[4,1]  -1.4133126285306585e-01
    x[1,8]    allocateEach[8]  1
    x[1,8]    findWorstP[1,2]  1.3657980407159037e-01
    x[1,8]    findWorstP[1,3]  1.3657980407159037e-01
    x[1,8]    findWorstP[1,4]  1.3657980407159037e-01
    x[1,8]    findWorstP[2,1]  -1.4210683774889471e-01
    x[1,8]    findWorstP[3,1]  -3.9571837318618443e-02
    x[1,8]    findWorstP[4,1]  -8.0245100096529159e-02
    x[1,9]    allocateEach[9]  1
    x[1,9]    findWorstP[1,2]  5.7758374964369825e-03
    x[1,9]    findWorstP[1,3]  5.7758374964369825e-03
    x[1,9]    findWorstP[1,4]  5.7758374964369825e-03
    x[1,9]    findWorstP[2,1]  -1.1657746900242662e-01
    x[1,9]    findWorstP[3,1]  -2.7948089106887394e-02
    x[1,9]    findWorstP[4,1]  -1.6218995257481011e-01
    x[1,10]   allocateEach[10]  1
    x[1,10]   findWorstP[1,2]  1.3287426676868144e-01
    x[1,10]   findWorstP[1,3]  1.3287426676868144e-01
    x[1,10]   findWorstP[1,4]  1.3287426676868144e-01
    x[1,10]   findWorstP[2,1]  -4.3978326629657942e-02
    x[1,10]   findWorstP[3,1]  -0.068107500510934
    x[1,10]   findWorstP[4,1]  -1.1696814538129013e-01
    x[2,1]    allocateEach[1]  1
    x[2,1]    findWorstP[1,2]  -1.6682418950747856e-02
    x[2,1]    findWorstP[2,1]  3.7562743077485618e-02
    x[2,1]    findWorstP[2,3]  3.7562743077485618e-02
    x[2,1]    findWorstP[2,4]  3.7562743077485618e-02
    x[2,1]    findWorstP[3,2]  -8.7114244839566757e-02
    x[2,1]    findWorstP[4,2]  -1.8562974776514041e-01
    x[2,2]    allocateEach[2]  1
    x[2,2]    findWorstP[1,2]  -1.3150906881497818e-01
    x[2,2]    findWorstP[2,1]  1.4421766446165607e-01
    x[2,2]    findWorstP[2,3]  1.4421766446165607e-01
    x[2,2]    findWorstP[2,4]  1.4421766446165607e-01
    x[2,2]    findWorstP[3,2]  -4.7133660331085230e-02
    x[2,2]    findWorstP[4,2]  -4.6795651991438283e-03
    x[2,3]    allocateEach[3]  1
    x[2,3]    findWorstP[1,2]  -1.3449450170274688e-01
    x[2,3]    findWorstP[2,1]  1.5016786889605424e-01
    x[2,3]    findWorstP[2,3]  1.5016786889605424e-01
    x[2,3]    findWorstP[2,4]  1.5016786889605424e-01
    x[2,3]    findWorstP[3,2]  -2.3878499897813207e-01
    x[2,3]    findWorstP[4,2]  -7.8293532547110425e-02
    x[2,4]    allocateEach[4]  1
    x[2,4]    findWorstP[1,2]  -1.3396942556670716e-01
    x[2,4]    findWorstP[2,1]  1.9446198849848752e-02
    x[2,4]    findWorstP[2,3]  1.9446198849848752e-02
    x[2,4]    findWorstP[2,4]  1.9446198849848752e-02
    x[2,4]    findWorstP[3,2]  -7.1632945023502967e-02
    x[2,4]    findWorstP[4,2]  -2.4132286901414363e-02
    x[2,5]    allocateEach[5]  1
    x[2,5]    findWorstP[1,2]  -1.0875076886148491e-01
    x[2,5]    findWorstP[2,1]  1.6175248479207524e-01
    x[2,5]    findWorstP[2,3]  1.6175248479207524e-01
    x[2,5]    findWorstP[2,4]  1.6175248479207524e-01
    x[2,5]    findWorstP[3,2]  -1.4602493357858168e-01
    x[2,5]    findWorstP[4,2]  -0.078314517144416
    x[2,6]    allocateEach[6]  1
    x[2,6]    findWorstP[1,2]  -1.4681128763670731e-01
    x[2,6]    findWorstP[2,1]  1.0796795532360468e-01
    x[2,6]    findWorstP[2,3]  1.0796795532360468e-01
    x[2,6]    findWorstP[2,4]  1.0796795532360468e-01
    x[2,6]    findWorstP[3,2]  -4.4502350296341718e-02
    x[2,6]    findWorstP[4,2]  -7.5754396273135516e-02
    x[2,7]    allocateEach[7]  1
    x[2,7]    findWorstP[1,2]  -1.5047181841366997e-02
    x[2,7]    findWorstP[2,1]  3.4670744274174783e-02
    x[2,7]    findWorstP[2,3]  3.4670744274174783e-02
    x[2,7]    findWorstP[2,4]  3.4670744274174783e-02
    x[2,7]    findWorstP[3,2]  -1.6531269160024528e-01
    x[2,7]    findWorstP[4,2]  -1.4133126285306585e-01
    x[2,8]    allocateEach[8]  1
    x[2,8]    findWorstP[1,2]  -1.3657980407159037e-01
    x[2,8]    findWorstP[2,1]  1.4210683774889471e-01
    x[2,8]    findWorstP[2,3]  1.4210683774889471e-01
    x[2,8]    findWorstP[2,4]  1.4210683774889471e-01
    x[2,8]    findWorstP[3,2]  -3.9571837318618443e-02
    x[2,8]    findWorstP[4,2]  -8.0245100096529159e-02
    x[2,9]    allocateEach[9]  1
    x[2,9]    findWorstP[1,2]  -5.7758374964369825e-03
    x[2,9]    findWorstP[2,1]  1.1657746900242662e-01
    x[2,9]    findWorstP[2,3]  1.1657746900242662e-01
    x[2,9]    findWorstP[2,4]  1.1657746900242662e-01
    x[2,9]    findWorstP[3,2]  -2.7948089106887394e-02
    x[2,9]    findWorstP[4,2]  -1.6218995257481011e-01
    x[2,10]   allocateEach[10]  1
    x[2,10]   findWorstP[1,2]  -1.3287426676868144e-01
    x[2,10]   findWorstP[2,1]  4.3978326629657942e-02
    x[2,10]   findWorstP[2,3]  4.3978326629657942e-02
    x[2,10]   findWorstP[2,4]  4.3978326629657942e-02
    x[2,10]   findWorstP[3,2]  -0.068107500510934
    x[2,10]   findWorstP[4,2]  -1.1696814538129013e-01
    x[3,1]    allocateEach[1]  1
    x[3,1]    findWorstP[1,3]  -1.6682418950747856e-02
    x[3,1]    findWorstP[2,3]  -3.7562743077485618e-02
    x[3,1]    findWorstP[3,1]  8.7114244839566757e-02
    x[3,1]    findWorstP[3,2]  8.7114244839566757e-02
    x[3,1]    findWorstP[3,4]  8.7114244839566757e-02
    x[3,1]    findWorstP[4,3]  -1.8562974776514041e-01
    x[3,2]    allocateEach[2]  1
    x[3,2]    findWorstP[1,3]  -1.3150906881497818e-01
    x[3,2]    findWorstP[2,3]  -1.4421766446165607e-01
    x[3,2]    findWorstP[3,1]  4.7133660331085230e-02
    x[3,2]    findWorstP[3,2]  4.7133660331085230e-02
    x[3,2]    findWorstP[3,4]  4.7133660331085230e-02
    x[3,2]    findWorstP[4,3]  -4.6795651991438283e-03
    x[3,3]    allocateEach[3]  1
    x[3,3]    findWorstP[1,3]  -1.3449450170274688e-01
    x[3,3]    findWorstP[2,3]  -1.5016786889605424e-01
    x[3,3]    findWorstP[3,1]  2.3878499897813207e-01
    x[3,3]    findWorstP[3,2]  2.3878499897813207e-01
    x[3,3]    findWorstP[3,4]  2.3878499897813207e-01
    x[3,3]    findWorstP[4,3]  -7.8293532547110425e-02
    x[3,4]    allocateEach[4]  1
    x[3,4]    findWorstP[1,3]  -1.3396942556670716e-01
    x[3,4]    findWorstP[2,3]  -1.9446198849848752e-02
    x[3,4]    findWorstP[3,1]  7.1632945023502967e-02
    x[3,4]    findWorstP[3,2]  7.1632945023502967e-02
    x[3,4]    findWorstP[3,4]  7.1632945023502967e-02
    x[3,4]    findWorstP[4,3]  -2.4132286901414363e-02
    x[3,5]    allocateEach[5]  1
    x[3,5]    findWorstP[1,3]  -1.0875076886148491e-01
    x[3,5]    findWorstP[2,3]  -1.6175248479207524e-01
    x[3,5]    findWorstP[3,1]  1.4602493357858168e-01
    x[3,5]    findWorstP[3,2]  1.4602493357858168e-01
    x[3,5]    findWorstP[3,4]  1.4602493357858168e-01
    x[3,5]    findWorstP[4,3]  -0.078314517144416
    x[3,6]    allocateEach[6]  1
    x[3,6]    findWorstP[1,3]  -1.4681128763670731e-01
    x[3,6]    findWorstP[2,3]  -1.0796795532360468e-01
    x[3,6]    findWorstP[3,1]  4.4502350296341718e-02
    x[3,6]    findWorstP[3,2]  4.4502350296341718e-02
    x[3,6]    findWorstP[3,4]  4.4502350296341718e-02
    x[3,6]    findWorstP[4,3]  -7.5754396273135516e-02
    x[3,7]    allocateEach[7]  1
    x[3,7]    findWorstP[1,3]  -1.5047181841366997e-02
    x[3,7]    findWorstP[2,3]  -3.4670744274174783e-02
    x[3,7]    findWorstP[3,1]  1.6531269160024528e-01
    x[3,7]    findWorstP[3,2]  1.6531269160024528e-01
    x[3,7]    findWorstP[3,4]  1.6531269160024528e-01
    x[3,7]    findWorstP[4,3]  -1.4133126285306585e-01
    x[3,8]    allocateEach[8]  1
    x[3,8]    findWorstP[1,3]  -1.3657980407159037e-01
    x[3,8]    findWorstP[2,3]  -1.4210683774889471e-01
    x[3,8]    findWorstP[3,1]  3.9571837318618443e-02
    x[3,8]    findWorstP[3,2]  3.9571837318618443e-02
    x[3,8]    findWorstP[3,4]  3.9571837318618443e-02
    x[3,8]    findWorstP[4,3]  -8.0245100096529159e-02
    x[3,9]    allocateEach[9]  1
    x[3,9]    findWorstP[1,3]  -5.7758374964369825e-03
    x[3,9]    findWorstP[2,3]  -1.1657746900242662e-01
    x[3,9]    findWorstP[3,1]  2.7948089106887394e-02
    x[3,9]    findWorstP[3,2]  2.7948089106887394e-02
    x[3,9]    findWorstP[3,4]  2.7948089106887394e-02
    x[3,9]    findWorstP[4,3]  -1.6218995257481011e-01
    x[3,10]   allocateEach[10]  1
    x[3,10]   findWorstP[1,3]  -1.3287426676868144e-01
    x[3,10]   findWorstP[2,3]  -4.3978326629657942e-02
    x[3,10]   findWorstP[3,1]  0.068107500510934
    x[3,10]   findWorstP[3,2]  0.068107500510934
    x[3,10]   findWorstP[3,4]  0.068107500510934
    x[3,10]   findWorstP[4,3]  -1.1696814538129013e-01
    x[4,1]    allocateEach[1]  1
    x[4,1]    findWorstP[1,4]  -1.6682418950747856e-02
    x[4,1]    findWorstP[2,4]  -3.7562743077485618e-02
    x[4,1]    findWorstP[3,4]  -8.7114244839566757e-02
    x[4,1]    findWorstP[4,1]  1.8562974776514041e-01
    x[4,1]    findWorstP[4,2]  1.8562974776514041e-01
    x[4,1]    findWorstP[4,3]  1.8562974776514041e-01
    x[4,2]    allocateEach[2]  1
    x[4,2]    findWorstP[1,4]  -1.3150906881497818e-01
    x[4,2]    findWorstP[2,4]  -1.4421766446165607e-01
    x[4,2]    findWorstP[3,4]  -4.7133660331085230e-02
    x[4,2]    findWorstP[4,1]  4.6795651991438283e-03
    x[4,2]    findWorstP[4,2]  4.6795651991438283e-03
    x[4,2]    findWorstP[4,3]  4.6795651991438283e-03
    x[4,3]    allocateEach[3]  1
    x[4,3]    findWorstP[1,4]  -1.3449450170274688e-01
    x[4,3]    findWorstP[2,4]  -1.5016786889605424e-01
    x[4,3]    findWorstP[3,4]  -2.3878499897813207e-01
    x[4,3]    findWorstP[4,1]  7.8293532547110425e-02
    x[4,3]    findWorstP[4,2]  7.8293532547110425e-02
    x[4,3]    findWorstP[4,3]  7.8293532547110425e-02
    x[4,4]    allocateEach[4]  1
    x[4,4]    findWorstP[1,4]  -1.3396942556670716e-01
    x[4,4]    findWorstP[2,4]  -1.9446198849848752e-02
    x[4,4]    findWorstP[3,4]  -7.1632945023502967e-02
    x[4,4]    findWorstP[4,1]  2.4132286901414363e-02
    x[4,4]    findWorstP[4,2]  2.4132286901414363e-02
    x[4,4]    findWorstP[4,3]  2.4132286901414363e-02
    x[4,5]    allocateEach[5]  1
    x[4,5]    findWorstP[1,4]  -1.0875076886148491e-01
    x[4,5]    findWorstP[2,4]  -1.6175248479207524e-01
    x[4,5]    findWorstP[3,4]  -1.4602493357858168e-01
    x[4,5]    findWorstP[4,1]  0.078314517144416
    x[4,5]    findWorstP[4,2]  0.078314517144416
    x[4,5]    findWorstP[4,3]  0.078314517144416
    x[4,6]    allocateEach[6]  1
    x[4,6]    findWorstP[1,4]  -1.4681128763670731e-01
    x[4,6]    findWorstP[2,4]  -1.0796795532360468e-01
    x[4,6]    findWorstP[3,4]  -4.4502350296341718e-02
    x[4,6]    findWorstP[4,1]  7.5754396273135516e-02
    x[4,6]    findWorstP[4,2]  7.5754396273135516e-02
    x[4,6]    findWorstP[4,3]  7.5754396273135516e-02
    x[4,7]    allocateEach[7]  1
    x[4,7]    findWorstP[1,4]  -1.5047181841366997e-02
    x[4,7]    findWorstP[2,4]  -3.4670744274174783e-02
    x[4,7]    findWorstP[3,4]  -1.6531269160024528e-01
    x[4,7]    findWorstP[4,1]  1.4133126285306585e-01
    x[4,7]    findWorstP[4,2]  1.4133126285306585e-01
    x[4,7]    findWorstP[4,3]  1.4133126285306585e-01
    x[4,8]    allocateEach[8]  1
    x[4,8]    findWorstP[1,4]  -1.3657980407159037e-01
    x[4,8]    findWorstP[2,4]  -1.4210683774889471e-01
    x[4,8]    findWorstP[3,4]  -3.9571837318618443e-02
    x[4,8]    findWorstP[4,1]  8.0245100096529159e-02
    x[4,8]    findWorstP[4,2]  8.0245100096529159e-02
    x[4,8]    findWorstP[4,3]  8.0245100096529159e-02
    x[4,9]    allocateEach[9]  1
    x[4,9]    findWorstP[1,4]  -5.7758374964369825e-03
    x[4,9]    findWorstP[2,4]  -1.1657746900242662e-01
    x[4,9]    findWorstP[3,4]  -2.7948089106887394e-02
    x[4,9]    findWorstP[4,1]  1.6218995257481011e-01
    x[4,9]    findWorstP[4,2]  1.6218995257481011e-01
    x[4,9]    findWorstP[4,3]  1.6218995257481011e-01
    x[4,10]   allocateEach[10]  1
    x[4,10]   findWorstP[1,4]  -1.3287426676868144e-01
    x[4,10]   findWorstP[2,4]  -4.3978326629657942e-02
    x[4,10]   findWorstP[3,4]  -0.068107500510934
    x[4,10]   findWorstP[4,1]  1.1696814538129013e-01
    x[4,10]   findWorstP[4,2]  1.1696814538129013e-01
    x[4,10]   findWorstP[4,3]  1.1696814538129013e-01
    MARKER    'MARKER'                 'INTEND'
RHS
    RHS1      allocateEach[1]  1
    RHS1      allocateEach[2]  1
    RHS1      allocateEach[3]  1
    RHS1      allocateEach[4]  1
    RHS1      allocateEach[5]  1
    RHS1      allocateEach[6]  1
    RHS1      allocateEach[7]  1
    RHS1      allocateEach[8]  1
    RHS1      allocateEach[9]  1
    RHS1      allocateEach[10]  1
    RHS1      allocateAllCash  1
BOUNDS
 UP BND1      z         1
 MI BND1      cashProportion[1]
 UP BND1      cashProportion[1]  1
 MI BND1      cashProportion[2]
 UP BND1      cashProportion[2]  1
 MI BND1      cashProportion[3]
 UP BND1      cashProportion[3]  1
 MI BND1      cashProportion[4]
 UP BND1      cashProportion[4]  1
 BV BND1      x[1,1]  
 BV BND1      x[1,2]  
 BV BND1      x[1,3]  
 BV BND1      x[1,4]  
 BV BND1      x[1,5]  
 BV BND1      x[1,6]  
 BV BND1      x[1,7]  
 BV BND1      x[1,8]  
 BV BND1      x[1,9]  
 BV BND1      x[1,10] 
 BV BND1      x[2,1]  
 BV BND1      x[2,2]  
 BV BND1      x[2,3]  
 BV BND1      x[2,4]  
 BV BND1      x[2,5]  
 BV BND1      x[2,6]  
 BV BND1      x[2,7]  
 BV BND1      x[2,8]  
 BV BND1      x[2,9]  
 BV BND1      x[2,10] 
 BV BND1      x[3,1]  
 BV BND1      x[3,2]  
 BV BND1      x[3,3]  
 BV BND1      x[3,4]  
 BV BND1      x[3,5]  
 BV BND1      x[3,6]  
 BV BND1      x[3,7]  
 BV BND1      x[3,8]  
 BV BND1      x[3,9]  
 BV BND1      x[3,10] 
 BV BND1      x[4,1]  
 BV BND1      x[4,2]  
 BV BND1      x[4,3]  
 BV BND1      x[4,4]  
 BV BND1      x[4,5]  
 BV BND1      x[4,6]  
 BV BND1      x[4,7]  
 BV BND1      x[4,8]  
 BV BND1      x[4,9]  
 BV BND1      x[4,10] 
ENDATA
